
--- Job gams_exe_group_p.gms Start 06/08/16 16:37:54 24.4.3 r51699 WEX-WEI x86 64bit/MS Windows
GAMS 24.4.3   Copyright (C) 1987-2015 GAMS Development. All rights reserved
Licensee: School of Sustainable Engineering              G150407:1621AO-WIN
          Arizona State University                                  DC11708
          License for teaching and research at degree granting institutions
--- Starting compilation
--- gams_exe_group_p.gms(48) 2 Mb
--- .gams_group_p_input.txt(5631) 3 Mb
--- gams_exe_group_p.gms(62) 3 Mb
--- Starting execution: elapsed 0:00:00.010
--- Generating MIP model model_group
--- gams_exe_group_p.gms(5683) 6 Mb
---   227 rows  5,701 columns  22,651 non-zeroes
---   5,700 discrete-columns
--- Executing CPLEX: elapsed 0:00:00.033

IBM ILOG CPLEX   24.4.3 r51699 Released Apr  2, 2015 WEI x86 64bit/MS Windows 
--- GAMS/Cplex licensed for continuous and discrete problems.
Cplex 12.6.1.0

Reading data...
Starting Cplex...
Space for names approximately 0.10 Mb
Use option 'names no' to turn use of names off
Tried aggregator 1 time.
MIP Presolve eliminated 1 rows and 1 columns.
Reduced MIP has 226 rows, 5700 columns, and 17100 nonzeros.
Reduced MIP has 5700 binaries, 0 generals, 0 SOSs, and 0 indicators.
Presolve time = 0.00 sec. (7.50 ticks)
Found incumbent of value 13434.000000 after 0.03 sec. (20.96 ticks)
Tried aggregator 1 time.
Reduced MIP has 226 rows, 5700 columns, and 17100 nonzeros.
Reduced MIP has 5700 binaries, 0 generals, 0 SOSs, and 0 indicators.
Presolve time = 0.01 sec. (7.52 ticks)
Dual steepest-edge pricing selected.
Probing time = 0.02 sec. (3.51 ticks)
Clique table members: 5700.
MIP emphasis: balance optimality and feasibility.
MIP search method: dynamic search.
Parallel mode: none, using 1 thread.
Tried aggregator 1 time.
No LP presolve or aggregator reductions.
Presolve time = 0.00 sec. (1.78 ticks)
Initializing dual steep norms . . .

Iteration log . . .
Iteration:     1   Dual objective     =             0.000000
Root relaxation solution time = 0.00 sec. (2.86 ticks)

        Nodes                                         Cuts/
   Node  Left     Objective  IInf  Best Integer    Best Bound    ItCnt     Gap

*     0+    0                        13434.0000        0.0000           100.00%
Found incumbent of value 13434.000000 after 0.09 sec. (43.65 ticks)
      0     0        0.0000    75    13434.0000        0.0000       75  100.00%
      0     0     1726.7381   171    13434.0000    Covers: 75      217   87.15%
      0     0     2034.8000   186    13434.0000     Cuts: 156      358   84.85%
      0     0     2154.2504   150    13434.0000     Cuts: 125      489   83.96%
      0     0     2189.8029   177    13434.0000      Cuts: 57      576   83.70%
      0     0     2205.7416   143    13434.0000      Cuts: 46      628   83.58%
      0     0     2217.4944   135    13434.0000      Cuts: 41      688   83.49%
      0     0     2220.2978   182    13434.0000      Cuts: 33      728   83.47%
      0     0     2221.9692    99    13434.0000      Cuts: 36      746   83.46%
      0     0     2224.5618   165    13434.0000      Cuts: 16      775   83.44%
      0     0     2226.8389   112    13434.0000      Cuts: 20      806   83.42%
      0     0     2228.3175   110    13434.0000      Cuts: 19      824   83.41%
      0     0     2228.6190    85    13434.0000       Cuts: 9      830   83.41%
      0     0     2229.0476    83    13434.0000       Cuts: 4      833   83.41%
      0     0     2229.3648   105    13434.0000       Cuts: 3      844   83.41%
      0     0     2230.1046   124    13434.0000       Cuts: 4      865   83.40%
      0     0     2230.5152   141    13434.0000      Cuts: 17      878   83.40%
      0     0     2230.7028   112    13434.0000       Cuts: 9      901   83.40%
      0     0     2233.0990   107    13434.0000       Cuts: 9      909   83.38%
      0     0     2234.4589   135    13434.0000       Cuts: 4      947   83.37%
      0     0     2236.0715   135    13434.0000      Cuts: 18      982   83.36%
      0     0     2237.5626   131    13434.0000      Cuts: 12     1003   83.34%
      0     0     2238.1791   159    13434.0000       Cuts: 9     1052   83.34%
      0     0     2239.3641   176    13434.0000       Cuts: 9     1070   83.33%
      0     0     2239.9961   146    13434.0000       Cuts: 6     1081   83.33%
      0     0     2240.5952   159    13434.0000       Cuts: 5     1094   83.32%
      0     0     2241.9583   155    13434.0000       Cuts: 8     1108   83.31%
      0     0     2243.5679   147    13434.0000       Cuts: 7     1128   83.30%
      0     0     2244.3246   204    13434.0000       Cuts: 7     1148   83.29%
      0     0     2244.5995   186    13434.0000      Cuts: 11     1164   83.29%
      0     0     2244.8724   209    13434.0000       Cuts: 6     1181   83.29%
*     0+    0                         2425.0000     2244.8724             7.43%
Found incumbent of value 2425.000000 after 1.45 sec. (1221.95 ticks)

Clique cuts applied:  98
Cover cuts applied:  222
Flow cuts applied:  3
Mixed integer rounding cuts applied:  42
Zero-half cuts applied:  66

Root node processing (before b&c):
  Real time             =    1.45 sec. (1222.16 ticks)
Sequential b&c:
  Real time             =    0.00 sec. (0.00 ticks)
                          ------------
Total (root+branch&cut) =    1.45 sec. (1222.16 ticks)
MIP status(102): integer optimal, tolerance
Cplex Time: 1.45sec (det. 1222.18 ticks)
Fixing integer variables, and solving final LP...
Tried aggregator 1 time.
LP Presolve eliminated 227 rows and 5701 columns.
All rows and columns eliminated.
Presolve time = 0.02 sec. (1.31 ticks)
Fixed MIP status(1): optimal
Cplex Time: 0.02sec (det. 1.86 ticks)

Solution satisfies tolerances.

MIP Solution:         2425.000000    (1181 iterations, 0 nodes)
Final Solve:          2425.000000    (0 iterations)

Best possible:        2244.872406
Absolute gap:          180.127594
Relative gap:            0.074279

--- Restarting execution
--- gams_exe_group_p.gms(5683) 2 Mb
--- Reading solution for model model_group
--- gams_exe_group_p.gms(5683) 3 Mb
--- Executing after solve: elapsed 0:00:02.569
--- gams_exe_group_p.gms(5693) 3 Mb
--- Putfile output_results_x E:\3 PrgStudy\MrpPlus_dominate\MvrpLite\bin\Debug\gams_group_p_output.txt
*** Status: Normal completion
--- Job gams_exe_group_p.gms Stop 06/08/16 16:37:56 elapsed 0:00:02.570
